Route #1: 30
Route #2: 19 1 7
Route #3: 22 29
Route #4: 12 27
Route #5: 17 11 6 28 3 8 15
Route #6: 31 16
Route #7: 14
Route #8: 2 10 9 18
Route #9: 20 23 13 26 21
Route #10: 24
Route #11: 5 4 25

Cost: 2085.9805802466058
